p cnf 143 438
1 2 3 4 0
-1 -2 0
-1 -3 0
-1 -4 0
-2 -3 0
-2 -4 0
-3 -4 0
5 6 7 8 0
-5 -6 0
-5 -7 0
-5 -8 0
-6 -7 0
-6 -8 0
-7 -8 0
9 10 11 0
-9 -10 0
-9 -11 0
-10 -11 0
12 13 14 0
-12 -13 0
-12 -14 0
-13 -14 0
15 16 0
-15 -16 0
17 18 0
-17 -18 0
19 20 21 0
-19 -20 0
-19 -21 0
-20 -21 0
22 23 24 0
-22 -23 0
-22 -24 0
-23 -24 0
25 26 27 0
-25 -26 0
-25 -27 0
-26 -27 0
28 29 30 31 0
-28 -29 0
-28 -30 0
-28 -31 0
-29 -30 0
-29 -31 0
-30 -31 0
32 33 34 0
-32 -33 0
-32 -34 0
-33 -34 0
35 36 37 38 0
-35 -36 0
-35 -37 0
-35 -38 0
-36 -37 0
-36 -38 0
-37 -38 0
39 40 0
-39 -40 0
41 42 43 0
-41 -42 0
-41 -43 0
-42 -43 0
44 45 46 47 0
-44 -45 0
-44 -46 0
-44 -47 0
-45 -46 0
-45 -47 0
-46 -47 0
48 49 50 51 0
-48 -49 0
-48 -50 0
-48 -51 0
-49 -50 0
-49 -51 0
-50 -51 0
52 53 54 55 0
-52 -53 0
-52 -54 0
-52 -55 0
-53 -54 0
-53 -55 0
-54 -55 0
56 57 58 0
-56 -57 0
-56 -58 0
-57 -58 0
59 60 61 0
-59 -60 0
-59 -61 0
-60 -61 0
62 63 64 65 0
-62 -63 0
-62 -64 0
-62 -65 0
-63 -64 0
-63 -65 0
-64 -65 0
66 67 68 69 0
-66 -67 0
-66 -68 0
-66 -69 0
-67 -68 0
-67 -69 0
-68 -69 0
70 71 72 0
-70 -71 0
-70 -72 0
-71 -72 0
73 74 75 76 0
-73 -74 0
-73 -75 0
-73 -76 0
-74 -75 0
-74 -76 0
-75 -76 0
77 78 79 80 0
-77 -78 0
-77 -79 0
-77 -80 0
-78 -79 0
-78 -80 0
-79 -80 0
81 82 0
-81 -82 0
83 84 85 86 0
-83 -84 0
-83 -85 0
-83 -86 0
-84 -85 0
-84 -86 0
-85 -86 0
87 88 89 90 0
-87 -88 0
-87 -89 0
-87 -90 0
-88 -89 0
-88 -90 0
-89 -90 0
91 92 93 0
-91 -92 0
-91 -93 0
-92 -93 0
94 95 96 97 0
-94 -95 0
-94 -96 0
-94 -97 0
-95 -96 0
-95 -97 0
-96 -97 0
98 99 100 0
-98 -99 0
-98 -100 0
-99 -100 0
101 102 103 0
-101 -102 0
-101 -103 0
-102 -103 0
104 105 106 107 0
-104 -105 0
-104 -106 0
-104 -107 0
-105 -106 0
-105 -107 0
-106 -107 0
108 109 110 0
-108 -109 0
-108 -110 0
-109 -110 0
111 112 113 114 0
-111 -112 0
-111 -113 0
-111 -114 0
-112 -113 0
-112 -114 0
-113 -114 0
115 116 117 118 0
-115 -116 0
-115 -117 0
-115 -118 0
-116 -117 0
-116 -118 0
-117 -118 0
119 120 121 0
-119 -120 0
-119 -121 0
-120 -121 0
122 123 124 125 0
-122 -123 0
-122 -124 0
-122 -125 0
-123 -124 0
-123 -125 0
-124 -125 0
126 127 128 129 0
-126 -127 0
-126 -128 0
-126 -129 0
-127 -128 0
-127 -129 0
-128 -129 0
130 131 132 0
-130 -131 0
-130 -132 0
-131 -132 0
133 134 135 136 0
-133 -134 0
-133 -135 0
-133 -136 0
-134 -135 0
-134 -136 0
-135 -136 0
137 138 139 140 0
-137 -138 0
-137 -139 0
-137 -140 0
-138 -139 0
-138 -140 0
-139 -140 0
141 142 143 0
-141 -142 0
-141 -143 0
-142 -143 0
-1 -28 0
-2 -29 0
-3 -30 0
-4 -31 0
-2 -39 0
-4 -40 0
-1 -101 0
-2 -102 0
-4 -103 0
-1 -122 0
-2 -123 0
-3 -124 0
-4 -125 0
-6 -15 0
-8 -16 0
-6 -17 0
-8 -18 0
-5 -35 0
-6 -36 0
-7 -37 0
-8 -38 0
-6 -41 0
-7 -42 0
-8 -43 0
-6 -81 0
-8 -82 0
-6 -91 0
-7 -92 0
-8 -93 0
-5 -119 0
-6 -120 0
-8 -121 0
-9 -112 0
-10 -113 0
-11 -114 0
-12 -25 0
-13 -26 0
-14 -27 0
-12 -78 0
-13 -79 0
-14 -80 0
-12 -91 0
-13 -92 0
-14 -93 0
-12 -105 0
-13 -106 0
-14 -107 0
-12 -109 0
-14 -110 0
-15 -32 0
-16 -34 0
-15 -63 0
-16 -65 0
-15 -67 0
-16 -69 0
-15 -105 0
-16 -107 0
-16 -143 0
-17 -134 0
-18 -136 0
-19 -22 0
-20 -23 0
-21 -24 0
-20 -60 0
-21 -61 0
-19 -77 0
-20 -79 0
-21 -80 0
-19 -108 0
-21 -110 0
-19 -111 0
-20 -113 0
-21 -114 0
-23 -71 0
-24 -72 0
-22 -137 0
-23 -139 0
-24 -140 0
-25 -36 0
-26 -37 0
-27 -38 0
-25 -88 0
-26 -89 0
-27 -90 0
-28 -35 0
-29 -36 0
-30 -37 0
-31 -38 0
-28 -52 0
-29 -53 0
-30 -54 0
-31 -55 0
-28 -130 0
-30 -131 0
-31 -132 0
-32 -53 0
-33 -54 0
-34 -55 0
-32 -95 0
-33 -96 0
-34 -97 0
-33 -131 0
-34 -132 0
-35 -77 0
-36 -78 0
-37 -79 0
-38 -80 0
-35 -141 0
-37 -142 0
-38 -143 0
-39 -70 0
-40 -72 0
-41 -95 0
-42 -96 0
-43 -97 0
-41 -102 0
-43 -103 0
-41 -116 0
-42 -117 0
-43 -118 0
-48 -52 0
-49 -53 0
-50 -54 0
-51 -55 0
-48 -73 0
-49 -74 0
-50 -75 0
-51 -76 0
-52 -83 0
-53 -84 0
-54 -85 0
-55 -86 0
-52 -122 0
-53 -123 0
-54 -124 0
-55 -125 0
-57 -70 0
-58 -72 0
-56 -133 0
-57 -134 0
-58 -136 0
-56 -141 0
-58 -143 0
-59 -123 0
-60 -124 0
-61 -125 0
-62 -101 0
-63 -102 0
-65 -103 0
-62 -122 0
-63 -123 0
-64 -124 0
-65 -125 0
-62 -137 0
-63 -138 0
-64 -139 0
-65 -140 0
-66 -141 0
-68 -142 0
-69 -143 0
-70 -78 0
-71 -79 0
-72 -80 0
-70 -109 0
-72 -110 0
-70 -120 0
-72 -121 0
-71 -142 0
-72 -143 0
-73 -77 0
-74 -78 0
-75 -79 0
-76 -80 0
-73 -101 0
-74 -102 0
-76 -103 0
-73 -137 0
-74 -138 0
-75 -139 0
-76 -140 0
-77 -94 0
-78 -95 0
-79 -96 0
-80 -97 0
-77 -122 0
-78 -123 0
-79 -124 0
-80 -125 0
-83 -115 0
-84 -116 0
-85 -117 0
-86 -118 0
-87 -98 0
-88 -99 0
-90 -100 0
-87 -130 0
-89 -131 0
-90 -132 0
-91 -109 0
-93 -110 0
-98 -126 0
-99 -127 0
-100 -129 0
-104 -141 0
-106 -142 0
-107 -143 0
-111 -130 0
-113 -131 0
-114 -132 0
-133 -141 0
-135 -142 0
-136 -143 0
-137 -141 0
-139 -142 0
-140 -143 0
